NAME : portcgen-21-10
COMMENT : portcgen N=21, seed=10
TYPE : TSP
DIMENSION : 21
EDGE_WEIGHT_TYPE : EUC_2D
NODE_COORD_SECTION
1 -207324 346034
2 227096 152621
3 92528 93113
4 276483 -101523
5 14634 -60699
6 -42419 -9827
7 224881 50533
8 85268 97376
9 -339540 15052
10 -227956 217416
11 59177 -253768
12 -63148 76115
13 -249851 -213427
14 -139744 224014
15 111078 -82795
16 -264314 -135676
17 307260 27438
18 29480 -355461
19 -131927 -154113
20 31765 691289
21 -86501 34902
